%%% static parameters %%%
timespan = 1;
Clients_N = [1000];
Demand_W = [15];
Lt0 = [4];
Lt1 = [4];
SS_ = [0.85];
DS_D = [20];
K = [200];
MA = [500];
HC = [0.05];
%%% dynamic parameters %%%
lost_ratio_sales_ret_th = 0.006076141814525422;
lost_ratio_sales_ret_w = 86;
lost_ratio_sales_dis_th = 0.009429675558933375;
lost_ratio_sales_dis_w = 100;
lost_ratio_sales_fac_th = 0.006770505909607886;
lost_ratio_sales_fac_w = 4;
stock_customer_MA_mean_relative_th = 0.906683167970712;
stock_customer_MA_mean_relative_w = 85;
stock_distributor_MA_mean_relative_th = 0.6792955949881125;
stock_distributor_MA_mean_relative_w = 31;
stock_retailer_MA_mean_relative_th = 0.1029783551557466;
stock_retailer_MA_mean_relative_w = 53;
stock_factory_MA_mean_relative_th = 0.8697726008108954;
stock_factory_MA_mean_relative_w = 31;
